GLPSOL--GLPK LP/MIP Solver 5.0
Parameter(s) specified in the command line:
 --lp ../modeles/5_289.lp --log 5_289.log
Reading problem data from '../modeles/5_289.lp'...
1466 rows, 2900 columns, 10140 non-zeros
1445 integer variables, all of which are binary
4377 lines were read
GLPK Integer Optimizer 5.0
1466 rows, 2900 columns, 10140 non-zeros
1445 integer variables, all of which are binary
Preprocessing...
1430 constraint coefficient(s) were reduced
1466 rows, 2895 columns, 10135 non-zeros
1445 integer variables, all of which are binary
Scaling...
 A: min|aij| =  4.789e-05  max|aij| =  4.000e+00  ratio =  8.352e+04
GM: min|aij| =  5.882e-02  max|aij| =  1.700e+01  ratio =  2.890e+02
EQ: min|aij| =  3.460e-03  max|aij| =  1.000e+00  ratio =  2.890e+02
2N: min|aij| =  3.065e-03  max|aij| =  1.774e+00  ratio =  5.787e+02
Constructing initial basis...
Size of triangular part is 1466
Solving LP relaxation...
GLPK Simplex Optimizer 5.0
1466 rows, 2895 columns, 10135 non-zeros
      0: obj =   1.000000000e+01 inf =   2.450e+01 (11)
     84: obj =   4.998862548e-01 inf =   0.000e+00 (0)
*   300: obj =  -2.235902357e+00 inf =   1.994e-15 (0)
OPTIMAL LP SOLUTION FOUND
Integer optimization begins...
Long-step dual simplex will be used
+   300: mip =     not found yet >=              -inf        (1; 0)
+   465: >>>>>  -2.235902357e+00 >=  -2.235902357e+00 < 0.1% (165; 0)
+   465: mip =  -2.235902357e+00 >=     tree is empty   0.0% (0; 329)
INTEGER OPTIMAL SOLUTION FOUND
Time used:   0.4 secs
Memory used: 4.2 Mb (4423861 bytes)
